NAME: instance_1763
TYPE: TSP
DIMENSION: 20
EDGE_WEIGHT_TYPE: EUC_2D
NODE_COORD_SECTION
0 16.23 79.29
1 3.26 15.34
2 45.20 54.74
3 47.15 20.32
4 91.71 81.48
5 42.71 63.77
6 64.98 19.01
7 80.33 71.43
8 25.68 34.63
9 42.38 57.66
10 11.62 30.34
11 56.23 10.63
12 3.99 27.33
13 17.25 42.77
14 5.23 72.55
15 19.64 86.39
16 64.32 53.70
17 76.02 97.16
18 2.58 28.00
19 36.40 55.54
EOF
